(set-logic QF_SLIA)
(declare-fun var0 () String)
(assert (str.in_re var0 (re.++ ((_ re.loop 12 556) (re.++ (re.union (str.to_re "[") (re.union (str.to_re "d") (re.union (str.to_re "8=") (str.to_re "!")))) (re.++ (re.union (str.to_re "3)") (re.union (str.to_re "W#n") (re.union (str.to_re "@K") (str.to_re "a:")))) (re.++ (re.union (str.to_re "\\l") (re.union (str.to_re "~") (re.union (str.to_re "S") (str.to_re "@8")))) (re.union (str.to_re "7y") (re.union (str.to_re "Q") (re.union (str.to_re "23") (str.to_re "4")))))))) (re.++ ((_ re.loop 9 452) (re.++ (re.union (str.to_re "XR") (re.union (str.to_re "qE") (re.union (str.to_re "5T") (str.to_re "s?}")))) (re.++ (re.union (str.to_re "$8") (re.union (str.to_re "=:") (re.union (str.to_re "or") (str.to_re "RZn")))) (re.++ (re.union (str.to_re "'r") (re.union (str.to_re "eS4") (re.union (str.to_re "+h") (str.to_re "Q")))) (re.union (str.to_re "-") (re.union (str.to_re "Qh") (re.union (str.to_re "Uw") (str.to_re "tcY")))))))) (re.++ ((_ re.loop 9 60) (re.++ (re.union (str.to_re "S") (re.union (str.to_re "GFu") (re.union (str.to_re "<)%") (str.to_re "Vp7")))) (re.++ (re.union (str.to_re "E") (re.union (str.to_re ",") (re.union (str.to_re "V") (str.to_re "FyW")))) (re.++ (re.union (str.to_re "Q@") (re.union (str.to_re "C") (re.union (str.to_re "C") (str.to_re "%")))) (re.union (str.to_re "A") (re.union (str.to_re "fb0") (re.union (str.to_re ";[7") (str.to_re "LG")))))))) ((_ re.loop 1 332) (re.++ (re.union (str.to_re "Dt;") (re.union (str.to_re "p") (re.union (str.to_re "_a3") (str.to_re "s1%")))) (re.++ (re.union (str.to_re "8_") (re.union (str.to_re "x") (re.union (str.to_re "xu.") (str.to_re ">")))) (re.++ (re.union (str.to_re "6") (re.union (str.to_re "b") (re.union (str.to_re "j") (str.to_re "T]")))) (re.union (str.to_re "o4!") (re.union (str.to_re "1e") (re.union (str.to_re "(,") (str.to_re "\\t")))))))))))))
(assert (not (str.in_re var0 (re.++ ((_ re.loop 0 27) (re.++ (re.union (str.to_re "Y") (re.union (str.to_re "|{%") (re.union (str.to_re "y") (str.to_re "HK2")))) (re.++ (re.union (str.to_re "2Vl") (re.union (str.to_re "G{") (re.union (str.to_re ",l") (str.to_re "E.A")))) (re.++ (re.union (str.to_re "z'") (re.union (str.to_re "0|V") (re.union (str.to_re "-") (str.to_re "Nbr")))) (re.union (str.to_re "`~|") (re.union (str.to_re "`") (re.union (str.to_re "_N") (str.to_re "ytR")))))))) (re.++ ((_ re.loop 17 171) (re.++ (re.union (str.to_re "t") (re.union (str.to_re "ku&") (re.union (str.to_re "*") (str.to_re "{Fj")))) (re.++ (re.union (str.to_re "rX^") (re.union (str.to_re "~") (re.union (str.to_re "$Ez") (str.to_re "z-~")))) (re.++ (re.union (str.to_re "?>") (re.union (str.to_re "cz") (re.union (str.to_re "9") (str.to_re "9eY")))) (re.union (str.to_re "Rqh") (re.union (str.to_re "hiI") (re.union (str.to_re "Kh-") (str.to_re "q+")))))))) (re.++ ((_ re.loop 20 416) (re.++ (re.union (str.to_re "k") (re.union (str.to_re "$") (re.union (str.to_re "Qxz") (str.to_re ":nk")))) (re.++ (re.union (str.to_re "?") (re.union (str.to_re "w+") (re.union (str.to_re "Xt") (str.to_re "8")))) (re.++ (re.union (str.to_re "UP|") (re.union (str.to_re "D+") (re.union (str.to_re "4O") (str.to_re "2x")))) (re.union (str.to_re "TLd") (re.union (str.to_re "0") (re.union (str.to_re "5(") (str.to_re "9")))))))) ((_ re.loop 10 528) (re.++ (re.union (str.to_re "#;P") (re.union (str.to_re "#D$") (re.union (str.to_re "z") (str.to_re "d")))) (re.++ (re.union (str.to_re "UAX") (re.union (str.to_re ")") (re.union (str.to_re "K") (str.to_re "2")))) (re.++ (re.union (str.to_re ";T") (re.union (str.to_re "c") (re.union (str.to_re "-Zf") (str.to_re "G")))) (re.union (str.to_re "}8") (re.union (str.to_re "=t") (re.union (str.to_re "V!") (str.to_re "l"))))))))))))))
(assert (not (str.in_re var0 (re.++ (re.* re.allchar) (re.++ (re.union (str.to_re "<") (re.union (str.to_re ">") (re.union (str.to_re "'") (re.union (str.to_re "\u0022") (str.to_re "&"))))) (re.* re.allchar))))))
(assert (<= 50 (str.len var0)))
(check-sat)
(get-model)
